(set-logic LIA)
(synth-fun next ((brake Int) (distance Int) (speed Int) (throttle Int) (ignition Bool) (time Int) ) Int
	((Start Int) (Var Int) (StartBool Bool))
	((Start Int (
				 4
				 5
				 6
				 (ite StartBool Start Start)))

	(Var Int (
			 0
			 1
			 2
			 3
			 4
			 929
			 1220
			 brake
			 distance
			 speed
			 throttle
			 time
			 (+ Var Var)						
			 (- Var Var)						
			 (* Var Var)))

	(StartBool Bool (
				 	 ignition
					(= Var Var)						
					(>= Var Var)						
					(<= Var Var)						
					(and StartBool StartBool)			
					(or  StartBool StartBool)				
					(not StartBool)))))

(constraint (= (next 1 1 2 0 true 1980 ) 5))
(constraint (= (next 1 1 7 0 true 185 ) 4))
(constraint (= (next 1 2 3 0 true 1496 ) 6))

(check-synth)
